c FILE:  par16-1-c.cnf
c
c SOURCE: James Crawford (jc@research.att.com)
c
c DESCRIPTION: Instance arises from the problem of learning the parity
c              function.  
c
c     parxx-y denotes a parity problem on xx bits.  y is simply the
c     intance number.
c
c     parxx-y-c denotes an instance identical to parxx-y except that
c     the instances have been simplified (to create an equivalent
c     problem). 
c
c NOTE: Satisfiable (checked for 8 and 16 size instances. All
c       instances are satisfiable by construction)
c
c NOTE: Number of clauses corrected August 3, 1993
c
c Converted from tableau format Tue Aug  3 09:48:56 EDT 1993
p cnf 317 1264
 -2 1
 0
 -3 -2
 0
 -5 4 3
 0
 -6 -5 3
 0
 5 -3
 0
 6 -3
 0
 -3 -2 -1
 0
 3 2 -1
 0
 -3 2 1
 0
 3 -2 1
 0
 -6 -5 -4
 0
 6 5 -4
 0
 -6 5 4
 0
 6 -5 4
 0
 -7 2
 0
 -8 -7
 0
 -9 5 8
 0
 -10 -9 8
 0
 9 -8
 0
 10 -8
 0
 -8 -7 -2
 0
 8 7 -2
 0
 -8 7 2
 0
 8 -7 2
 0
 -10 -9 -5
 0
 10 9 -5
 0
 -10 9 5
 0
 10 -9 5
 0
 -11 7
 0
 -12 -11
 0
 -13 9 12
 0
 -14 -13 12
 0
 13 -12
 0
 14 -12
 0
 -12 -11 -7
 0
 12 11 -7
 0
 -12 11 7
 0
 12 -11 7
 0
 -14 -13 -9
 0
 14 13 -9
 0
 -14 13 9
 0
 14 -13 9
 0
 -15 11
 0
 -16 -15
 0
 -17 13 16
 0
 -18 -17 16
 0
 17 -16
 0
 18 -16
 0
 -16 -15 -11
 0
 16 15 -11
 0
 -16 15 11
 0
 16 -15 11
 0
 -18 -17 -13
 0
 18 17 -13
 0
 -18 17 13
 0
 18 -17 13
 0
 -19 15
 0
 -20 -19
 0
 -21 17 20
 0
 -22 -21 20
 0
 21 -20
 0
 22 -20
 0
 -20 -19 -15
 0
 20 19 -15
 0
 -20 19 15
 0
 20 -19 15
 0
 -22 -21 -17
 0
 22 21 -17
 0
 -22 21 17
 0
 22 -21 17
 0
 -23 19
 0
 -24 -23
 0
 -25 21 24
 0
 -26 -25 24
 0
 25 -24
 0
 26 -24
 0
 -24 -23 -19
 0
 24 23 -19
 0
 -24 23 19
 0
 24 -23 19
 0
 -26 -25 -21
 0
 26 25 -21
 0
 -26 25 21
 0
 26 -25 21
 0
 -27 23
 0
 -28 -27
 0
 -29 25 28
 0
 -30 -29 28
 0
 29 -28
 0
 30 -28
 0
 -28 -27 -23
 0
 28 27 -23
 0
 -28 27 23
 0
 28 -27 23
 0
 -30 -29 -25
 0
 30 29 -25
 0
 -30 29 25
 0
 30 -29 25
 0
 -31 27
 0
 -32 -31
 0
 -33 29 32
 0
 -34 -33 32
 0
 33 -32
 0
 34 -32
 0
 -32 -31 -27
 0
 32 31 -27
 0
 -32 31 27
 0
 32 -31 27
 0
 -34 -33 -29
 0
 34 33 -29
 0
 -34 33 29
 0
 34 -33 29
 0
 -35 31
 0
 -36 -35
 0
 -37 33 36
 0
 -38 -37 36
 0
 37 -36
 0
 38 -36
 0
 -36 -35 -31
 0
 36 35 -31
 0
 -36 35 31
 0
 36 -35 31
 0
 -38 -37 -33
 0
 38 37 -33
 0
 -38 37 33
 0
 38 -37 33
 0
 -39 35
 0
 -40 -39
 0
 -41 37 40
 0
 -42 -41 40
 0
 41 -40
 0
 42 -40
 0
 -40 -39 -35
 0
 40 39 -35
 0
 -40 39 35
 0
 40 -39 35
 0
 -42 -41 -37
 0
 42 41 -37
 0
 -42 41 37
 0
 42 -41 37
 0
 -43 39
 0
 -44 -43
 0
 -45 41 44
 0
 -46 -45 44
 0
 45 -44
 0
 46 -44
 0
 -44 -43 -39
 0
 44 43 -39
 0
 -44 43 39
 0
 44 -43 39
 0
 -46 -45 -41
 0
 46 45 -41
 0
 -46 45 41
 0
 46 -45 41
 0
 -47 43
 0
 -48 -47
 0
 -49 45 48
 0
 -50 -49 48
 0
 49 -48
 0
 50 -48
 0
 -48 -47 -43
 0
 48 47 -43
 0
 -48 47 43
 0
 48 -47 43
 0
 -50 -49 -45
 0
 50 49 -45
 0
 -50 49 45
 0
 50 -49 45
 0
 -51 47
 0
 -52 -51
 0
 -53 49 52
 0
 -54 -53 52
 0
 53 -52
 0
 54 -52
 0
 -52 -51 -47
 0
 52 51 -47
 0
 -52 51 47
 0
 52 -51 47
 0
 -54 -53 -49
 0
 54 53 -49
 0
 -54 53 49
 0
 54 -53 49
 0
 -55 51
 0
 -56 -55
 0
 -57 53 56
 0
 -58 -57 56
 0
 57 -56
 0
 58 -56
 0
 -56 -55 -51
 0
 56 55 -51
 0
 -56 55 51
 0
 56 -55 51
 0
 -58 -57 -53
 0
 58 57 -53
 0
 -58 57 53
 0
 58 -57 53
 0
 -59 55
 0
 -60 -59
 0
 -61 57 60
 0
 -62 -61 60
 0
 61 -60
 0
 62 -60
 0
 -60 -59 -55
 0
 60 59 -55
 0
 -60 59 55
 0
 60 -59 55
 0
 -62 -61 -57
 0
 62 61 -57
 0
 -62 61 57
 0
 62 -61 57
 0
 -63 59
 0
 -64 -63
 0
 -65 61 64
 0
 -66 -65 64
 0
 65 -64
 0
 66 -64
 0
 -64 -63 -59
 0
 64 63 -59
 0
 -64 63 59
 0
 64 -63 59
 0
 -66 -65 -61
 0
 66 65 -61
 0
 -66 65 61
 0
 66 -65 61
 0
 -67 63
 0
 -68 -67
 0
 -69 65 68
 0
 -70 -69 68
 0
 69 -68
 0
 70 -68
 0
 -68 -67 -63
 0
 68 67 -63
 0
 -68 67 63
 0
 68 -67 63
 0
 -70 -69 -65
 0
 70 69 -65
 0
 -70 69 65
 0
 70 -69 65
 0
 -71 67
 0
 -72 -71
 0
 -73 69 72
 0
 -74 -73 72
 0
 73 -72
 0
 74 -72
 0
 -72 -71 -67
 0
 72 71 -67
 0
 -72 71 67
 0
 72 -71 67
 0
 -74 -73 -69
 0
 74 73 -69
 0
 -74 73 69
 0
 74 -73 69
 0
 -75 71
 0
 -76 -75
 0
 -77 73 76
 0
 -78 -77 76
 0
 77 -76
 0
 78 -76
 0
 -76 -75 -71
 0
 76 75 -71
 0
 -76 75 71
 0
 76 -75 71
 0
 -78 -77 -73
 0
 78 77 -73
 0
 -78 77 73
 0
 78 -77 73
 0
 -79 75
 0
 -80 -79
 0
 -81 77 80
 0
 -82 -81 80
 0
 81 -80
 0
 82 -80
 0
 -80 -79 -75
 0
 80 79 -75
 0
 -80 79 75
 0
 80 -79 75
 0
 -82 -81 -77
 0
 82 81 -77
 0
 -82 81 77
 0
 82 -81 77
 0
 -83 79
 0
 -84 -83
 0
 -85 81 84
 0
 -86 -85 84
 0
 85 -84
 0
 86 -84
 0
 -84 -83 -79
 0
 84 83 -79
 0
 -84 83 79
 0
 84 -83 79
 0
 -86 -85 -81
 0
 86 85 -81
 0
 -86 85 81
 0
 86 -85 81
 0
 -87 83
 0
 -88 -87
 0
 -89 85 88
 0
 -90 -89 88
 0
 89 -88
 0
 90 -88
 0
 -88 -87 -83
 0
 88 87 -83
 0
 -88 87 83
 0
 88 -87 83
 0
 -90 -89 -85
 0
 90 89 -85
 0
 -90 89 85
 0
 90 -89 85
 0
 -91 87
 0
 -92 -91
 0
 -93 89 92
 0
 -94 -93 92
 0
 93 -92
 0
 94 -92
 0
 -92 -91 -87
 0
 92 91 -87
 0
 -92 91 87
 0
 92 -91 87
 0
 -94 -93 -89
 0
 94 93 -89
 0
 -94 93 89
 0
 94 -93 89
 0
 -95 91
 0
 -96 -95
 0
 -97 93 96
 0
 -98 -97 96
 0
 97 -96
 0
 98 -96
 0
 -96 -95 -91
 0
 96 95 -91
 0
 -96 95 91
 0
 96 -95 91
 0
 -98 -97 -93
 0
 98 97 -93
 0
 -98 97 93
 0
 98 -97 93
 0
 -99 95
 0
 -100 -99
 0
 -101 97 100
 0
 -102 -101 100
 0
 101 -100
 0
 102 -100
 0
 -100 -99 -95
 0
 100 99 -95
 0
 -100 99 95
 0
 100 -99 95
 0
 -102 -101 -97
 0
 102 101 -97
 0
 -102 101 97
 0
 102 -101 97
 0
 -103 99
 0
 -104 -103
 0
 -105 101 104
 0
 -106 -105 104
 0
 105 -104
 0
 106 -104
 0
 -104 -103 -99
 0
 104 103 -99
 0
 -104 103 99
 0
 104 -103 99
 0
 -106 -105 -101
 0
 106 105 -101
 0
 -106 105 101
 0
 106 -105 101
 0
 -107 103
 0
 -108 -107
 0
 -109 105 108
 0
 -110 -109 108
 0
 109 -108
 0
 110 -108
 0
 -108 -107 -103
 0
 108 107 -103
 0
 -108 107 103
 0
 108 -107 103
 0
 -110 -109 -105
 0
 110 109 -105
 0
 -110 109 105
 0
 110 -109 105
 0
 -111 107
 0
 -112 -111
 0
 -113 109 112
 0
 -114 -113 112
 0
 113 -112
 0
 114 -112
 0
 -112 -111 -107
 0
 112 111 -107
 0
 -112 111 107
 0
 112 -111 107
 0
 -114 -113 -109
 0
 114 113 -109
 0
 -114 113 109
 0
 114 -113 109
 0
 -115 111
 0
 -116 -115
 0
 -117 113 116
 0
 -118 -117 116
 0
 117 -116
 0
 118 -116
 0
 -116 -115 -111
 0
 116 115 -111
 0
 -116 115 111
 0
 116 -115 111
 0
 -118 -117 -113
 0
 118 117 -113
 0
 -118 117 113
 0
 118 -117 113
 0
 115 -119
 0
 -120 -119
 0
 -121 117 120
 0
 -122 -121 120
 0
 121 -120
 0
 122 -120
 0
 -120 -115 -119
 0
 120 -115 119
 0
 -120 115 119
 0
 120 115 -119
 0
 -122 -121 -117
 0
 122 121 -117
 0
 -122 121 117
 0
 122 -121 117
 0
 121 119 -123
 0
 -124 119 -123
 0
 -119 123
 0
 124 -119
 0
 -124 -121 -123
 0
 124 -121 123
 0
 -124 121 123
 0
 124 121 -123
 0
 -126 -125 -6
 0
 126 125 -6
 0
 -126 125 6
 0
 126 -125 6
 0
 -128 -127 -125
 0
 128 127 -125
 0
 -128 127 125
 0
 128 -127 125
 0
 -130 -129 -127
 0
 130 129 -127
 0
 -130 129 127
 0
 130 -129 127
 0
 -132 -131 -129
 0
 132 131 -129
 0
 -132 131 129
 0
 132 -131 129
 0
 -134 -133 -131
 0
 134 133 -131
 0
 -134 133 131
 0
 134 -133 131
 0
 -136 -135 -133
 0
 136 135 -133
 0
 -136 135 133
 0
 136 -135 133
 0
 -138 -135 -137
 0
 138 -135 137
 0
 -138 135 137
 0
 138 135 -137
 0
 -126 -139 -10
 0
 126 139 -10
 0
 -126 139 10
 0
 126 -139 10
 0
 -128 -140 -139
 0
 128 140 -139
 0
 -128 140 139
 0
 128 -140 139
 0
 -130 -141 -140
 0
 130 141 -140
 0
 -130 141 140
 0
 130 -141 140
 0
 -143 -142 -141
 0
 143 142 -141
 0
 -143 142 141
 0
 143 -142 141
 0
 -145 -144 -142
 0
 145 144 -142
 0
 -145 144 142
 0
 145 -144 142
 0
 -147 -146 -144
 0
 147 146 -144
 0
 -147 146 144
 0
 147 -146 144
 0
 -136 -148 -146
 0
 136 148 -146
 0
 -136 148 146
 0
 136 -148 146
 0
 -149 -137 -148
 0
 149 137 -148
 0
 -149 137 148
 0
 149 -137 148
 0
 -151 -150 -14
 0
 151 150 -14
 0
 -151 150 14
 0
 151 -150 14
 0
 -126 -152 -150
 0
 126 152 -150
 0
 -126 152 150
 0
 126 -152 150
 0
 -130 -153 -152
 0
 130 153 -152
 0
 -130 153 152
 0
 130 -153 152
 0
 -132 -154 -153
 0
 132 154 -153
 0
 -132 154 153
 0
 132 -154 153
 0
 -143 -155 -154
 0
 143 155 -154
 0
 -143 155 154
 0
 143 -155 154
 0
 -157 -156 -155
 0
 157 156 -155
 0
 -157 156 155
 0
 157 -156 155
 0
 -158 -138 -156
 0
 158 138 -156
 0
 -158 138 156
 0
 158 -138 156
 0
 -128 -159 -18
 0
 128 159 -18
 0
 -128 159 18
 0
 128 -159 18
 0
 -132 -160 -159
 0
 132 160 -159
 0
 -132 160 159
 0
 132 -160 159
 0
 -143 -161 -160
 0
 143 161 -160
 0
 -143 161 160
 0
 143 -161 160
 0
 -157 -162 -161
 0
 157 162 -161
 0
 -157 162 161
 0
 157 -162 161
 0
 -158 -163 -162
 0
 158 163 -162
 0
 -158 163 162
 0
 158 -163 162
 0
 -136 -164 -163
 0
 136 164 -163
 0
 -136 164 163
 0
 136 -164 163
 0
 -165 -164 149
 0
 165 -164 -149
 0
 -165 164 -149
 0
 165 164 149
 0
 -151 -166 -22
 0
 151 166 -22
 0
 -151 166 22
 0
 151 -166 22
 0
 -128 -167 -166
 0
 128 167 -166
 0
 -128 167 166
 0
 128 -167 166
 0
 -130 -168 -167
 0
 130 168 -167
 0
 -130 168 167
 0
 130 -168 167
 0
 -158 -169 -168
 0
 158 169 -168
 0
 -158 169 168
 0
 158 -169 168
 0
 -136 -170 -169
 0
 136 170 -169
 0
 -136 170 169
 0
 136 -170 169
 0
 -165 -137 -170
 0
 165 137 -170
 0
 -165 137 170
 0
 165 -137 170
 0
 -128 -171 -26
 0
 128 171 -26
 0
 -128 171 26
 0
 128 -171 26
 0
 -130 -172 -171
 0
 130 172 -171
 0
 -130 172 171
 0
 130 -172 171
 0
 -132 -173 -172
 0
 132 173 -172
 0
 -132 173 172
 0
 132 -173 172
 0
 -143 -174 -173
 0
 143 174 -173
 0
 -143 174 173
 0
 143 -174 173
 0
 -157 -174 149
 0
 157 -174 -149
 0
 -157 174 -149
 0
 157 174 149
 0
 -151 -175 -30
 0
 151 175 -30
 0
 -151 175 30
 0
 151 -175 30
 0
 -126 -176 -175
 0
 126 176 -175
 0
 -126 176 175
 0
 126 -176 175
 0
 -128 -177 -176
 0
 128 177 -176
 0
 -128 177 176
 0
 128 -177 176
 0
 -145 -178 -177
 0
 145 178 -177
 0
 -145 178 177
 0
 145 -178 177
 0
 -157 -178 134
 0
 157 -178 -134
 0
 -157 178 -134
 0
 157 178 134
 0
 -126 -179 -34
 0
 126 179 -34
 0
 -126 179 34
 0
 126 -179 34
 0
 -128 -180 -179
 0
 128 180 -179
 0
 -128 180 179
 0
 128 -180 179
 0
 -130 -181 -180
 0
 130 181 -180
 0
 -130 181 180
 0
 130 -181 180
 0
 -132 -182 -181
 0
 132 182 -181
 0
 -132 182 181
 0
 132 -182 181
 0
 -145 -183 -182
 0
 145 183 -182
 0
 -145 183 182
 0
 145 -183 182
 0
 -157 -184 -183
 0
 157 184 -183
 0
 -157 184 183
 0
 157 -184 183
 0
 -158 -185 -184
 0
 158 185 -184
 0
 -158 185 184
 0
 158 -185 184
 0
 -134 -186 -185
 0
 134 186 -185
 0
 -134 186 185
 0
 134 -186 185
 0
 -138 -186 165
 0
 138 -186 -165
 0
 -138 186 -165
 0
 138 186 165
 0
 -151 -187 -38
 0
 151 187 -38
 0
 -151 187 38
 0
 151 -187 38
 0
 -126 -188 -187
 0
 126 188 -187
 0
 -126 188 187
 0
 126 -188 187
 0
 -143 -189 -188
 0
 143 189 -188
 0
 -143 189 188
 0
 143 -189 188
 0
 -145 -190 -189
 0
 145 190 -189
 0
 -145 190 189
 0
 145 -190 189
 0
 -157 -191 -190
 0
 157 191 -190
 0
 -157 191 190
 0
 157 -191 190
 0
 -147 -192 -191
 0
 147 192 -191
 0
 -147 192 191
 0
 147 -192 191
 0
 -158 -192 149
 0
 158 -192 -149
 0
 -158 192 -149
 0
 158 192 149
 0
 -151 -193 -42
 0
 151 193 -42
 0
 -151 193 42
 0
 151 -193 42
 0
 -126 -194 -193
 0
 126 194 -193
 0
 -126 194 193
 0
 126 -194 193
 0
 -143 -195 -194
 0
 143 195 -194
 0
 -143 195 194
 0
 143 -195 194
 0
 -145 -196 -195
 0
 145 196 -195
 0
 -145 196 195
 0
 145 -196 195
 0
 -157 -197 -196
 0
 157 197 -196
 0
 -157 197 196
 0
 157 -197 196
 0
 -147 -198 -197
 0
 147 198 -197
 0
 -147 198 197
 0
 147 -198 197
 0
 -134 -199 -198
 0
 134 199 -198
 0
 -134 199 198
 0
 134 -199 198
 0
 -165 -200 -199
 0
 165 200 -199
 0
 -165 200 199
 0
 165 -200 199
 0
 -149 -200 137
 0
 149 -200 -137
 0
 -149 200 -137
 0
 149 200 137
 0
 -126 -201 -46
 0
 126 201 -46
 0
 -126 201 46
 0
 126 -201 46
 0
 -128 -202 -201
 0
 128 202 -201
 0
 -128 202 201
 0
 128 -202 201
 0
 -130 -203 -202
 0
 130 203 -202
 0
 -130 203 202
 0
 130 -203 202
 0
 -134 -204 -203
 0
 134 204 -203
 0
 -134 204 203
 0
 134 -204 203
 0
 -136 -205 -204
 0
 136 205 -204
 0
 -136 205 204
 0
 136 -205 204
 0
 -138 -205 137
 0
 138 -205 -137
 0
 -138 205 -137
 0
 138 205 137
 0
 -151 -206 -50
 0
 151 206 -50
 0
 -151 206 50
 0
 151 -206 50
 0
 -126 -207 -206
 0
 126 207 -206
 0
 -126 207 206
 0
 126 -207 206
 0
 -143 -208 -207
 0
 143 208 -207
 0
 -143 208 207
 0
 143 -208 207
 0
 -157 -209 -208
 0
 157 209 -208
 0
 -157 209 208
 0
 157 -209 208
 0
 -138 -210 -209
 0
 138 210 -209
 0
 -138 210 209
 0
 138 -210 209
 0
 -165 -210 -149
 0
 165 -210 149
 0
 -165 210 149
 0
 165 210 -149
 0
 -151 -211 -54
 0
 151 211 -54
 0
 -151 211 54
 0
 151 -211 54
 0
 -130 -212 -211
 0
 130 212 -211
 0
 -130 212 211
 0
 130 -212 211
 0
 -132 -213 -212
 0
 132 213 -212
 0
 -132 213 212
 0
 132 -213 212
 0
 -143 -214 -213
 0
 143 214 -213
 0
 -143 214 213
 0
 143 -214 213
 0
 -145 -215 -214
 0
 145 215 -214
 0
 -145 215 214
 0
 145 -215 214
 0
 -157 -216 -215
 0
 157 216 -215
 0
 -157 216 215
 0
 157 -216 215
 0
 -158 -217 -216
 0
 158 217 -216
 0
 -158 217 216
 0
 158 -217 216
 0
 -134 -218 -217
 0
 134 218 -217
 0
 -134 218 217
 0
 134 -218 217
 0
 -136 -218 165
 0
 136 -218 -165
 0
 -136 218 -165
 0
 136 218 165
 0
 -151 -219 -58
 0
 151 219 -58
 0
 -151 219 58
 0
 151 -219 58
 0
 -128 -220 -219
 0
 128 220 -219
 0
 -128 220 219
 0
 128 -220 219
 0
 -130 -221 -220
 0
 130 221 -220
 0
 -130 221 220
 0
 130 -221 220
 0
 -132 -222 -221
 0
 132 222 -221
 0
 -132 222 221
 0
 132 -222 221
 0
 -145 -223 -222
 0
 145 223 -222
 0
 -145 223 222
 0
 145 -223 222
 0
 -147 -224 -223
 0
 147 224 -223
 0
 -147 224 223
 0
 147 -224 223
 0
 -136 -225 -224
 0
 136 225 -224
 0
 -136 225 224
 0
 136 -225 224
 0
 -165 -137 -225
 0
 165 137 -225
 0
 -165 137 225
 0
 165 -137 225
 0
 -143 -226 -62
 0
 143 226 -62
 0
 -143 226 62
 0
 143 -226 62
 0
 -145 -227 -226
 0
 145 227 -226
 0
 -145 227 226
 0
 145 -227 226
 0
 -134 -228 -227
 0
 134 228 -227
 0
 -134 228 227
 0
 134 -228 227
 0
 -138 -229 -228
 0
 138 229 -228
 0
 -138 229 228
 0
 138 -229 228
 0
 -149 -137 -229
 0
 149 137 -229
 0
 -149 137 229
 0
 149 -137 229
 0
 -126 -230 -66
 0
 126 230 -66
 0
 -126 230 66
 0
 126 -230 66
 0
 -128 -231 -230
 0
 128 231 -230
 0
 -128 231 230
 0
 128 -231 230
 0
 -130 -232 -231
 0
 130 232 -231
 0
 -130 232 231
 0
 130 -232 231
 0
 -132 -233 -232
 0
 132 233 -232
 0
 -132 233 232
 0
 132 -233 232
 0
 -147 -234 -233
 0
 147 234 -233
 0
 -147 234 233
 0
 147 -234 233
 0
 -134 -234 136
 0
 134 -234 -136
 0
 -134 234 -136
 0
 134 234 136
 0
 -126 -235 -70
 0
 126 235 -70
 0
 -126 235 70
 0
 126 -235 70
 0
 -130 -236 -235
 0
 130 236 -235
 0
 -130 236 235
 0
 130 -236 235
 0
 -132 -237 -236
 0
 132 237 -236
 0
 -132 237 236
 0
 132 -237 236
 0
 -143 -238 -237
 0
 143 238 -237
 0
 -143 238 237
 0
 143 -238 237
 0
 -145 -239 -238
 0
 145 239 -238
 0
 -145 239 238
 0
 145 -239 238
 0
 -157 -240 -239
 0
 157 240 -239
 0
 -157 240 239
 0
 157 -240 239
 0
 -134 -240 137
 0
 134 -240 -137
 0
 -134 240 -137
 0
 134 240 137
 0
 -151 -241 -74
 0
 151 241 -74
 0
 -151 241 74
 0
 151 -241 74
 0
 -126 -242 -241
 0
 126 242 -241
 0
 -126 242 241
 0
 126 -242 241
 0
 -145 -243 -242
 0
 145 243 -242
 0
 -145 243 242
 0
 145 -243 242
 0
 -157 -244 -243
 0
 157 244 -243
 0
 -157 244 243
 0
 157 -244 243
 0
 -147 -245 -244
 0
 147 245 -244
 0
 -147 245 244
 0
 147 -245 244
 0
 -165 -246 -245
 0
 165 246 -245
 0
 -165 246 245
 0
 165 -246 245
 0
 -149 -246 -137
 0
 149 -246 137
 0
 -149 246 137
 0
 149 246 -137
 0
 -151 -247 -78
 0
 151 247 -78
 0
 -151 247 78
 0
 151 -247 78
 0
 -126 -248 -247
 0
 126 248 -247
 0
 -126 248 247
 0
 126 -248 247
 0
 -128 -249 -248
 0
 128 249 -248
 0
 -128 249 248
 0
 128 -249 248
 0
 -132 -250 -249
 0
 132 250 -249
 0
 -132 250 249
 0
 132 -250 249
 0
 -143 -251 -250
 0
 143 251 -250
 0
 -143 251 250
 0
 143 -251 250
 0
 -158 -252 -251
 0
 158 252 -251
 0
 -158 252 251
 0
 158 -252 251
 0
 -134 -253 -252
 0
 134 253 -252
 0
 -134 253 252
 0
 134 -253 252
 0
 -138 -253 137
 0
 138 -253 -137
 0
 -138 253 -137
 0
 138 253 137
 0
 -151 -254 -82
 0
 151 254 -82
 0
 -151 254 82
 0
 151 -254 82
 0
 -126 -255 -254
 0
 126 255 -254
 0
 -126 255 254
 0
 126 -255 254
 0
 -128 -256 -255
 0
 128 256 -255
 0
 -128 256 255
 0
 128 -256 255
 0
 -130 -257 -256
 0
 130 257 -256
 0
 -130 257 256
 0
 130 -257 256
 0
 -143 -258 -257
 0
 143 258 -257
 0
 -143 258 257
 0
 143 -258 257
 0
 -145 -259 -258
 0
 145 259 -258
 0
 -145 259 258
 0
 145 -259 258
 0
 -147 -260 -259
 0
 147 260 -259
 0
 -147 260 259
 0
 147 -260 259
 0
 -158 -261 -260
 0
 158 261 -260
 0
 -158 261 260
 0
 158 -261 260
 0
 -136 -262 -261
 0
 136 262 -261
 0
 -136 262 261
 0
 136 -262 261
 0
 -165 -149 -262
 0
 165 149 -262
 0
 -165 149 262
 0
 165 -149 262
 0
 -128 -263 -86
 0
 128 263 -86
 0
 -128 263 86
 0
 128 -263 86
 0
 -157 -264 -263
 0
 157 264 -263
 0
 -157 264 263
 0
 157 -264 263
 0
 -147 -265 -264
 0
 147 265 -264
 0
 -147 265 264
 0
 147 -265 264
 0
 -158 -266 -265
 0
 158 266 -265
 0
 -158 266 265
 0
 158 -266 265
 0
 -134 -267 -266
 0
 134 267 -266
 0
 -134 267 266
 0
 134 -267 266
 0
 -138 -149 -267
 0
 138 149 -267
 0
 -138 149 267
 0
 138 -149 267
 0
 -126 -268 -90
 0
 126 268 -90
 0
 -126 268 90
 0
 126 -268 90
 0
 -132 -269 -268
 0
 132 269 -268
 0
 -132 269 268
 0
 132 -269 268
 0
 -147 -269 149
 0
 147 -269 -149
 0
 -147 269 -149
 0
 147 269 149
 0
 -151 -270 -94
 0
 151 270 -94
 0
 -151 270 94
 0
 151 -270 94
 0
 -128 -271 -270
 0
 128 271 -270
 0
 -128 271 270
 0
 128 -271 270
 0
 -130 -272 -271
 0
 130 272 -271
 0
 -130 272 271
 0
 130 -272 271
 0
 -132 -273 -272
 0
 132 273 -272
 0
 -132 273 272
 0
 132 -273 272
 0
 -145 -274 -273
 0
 145 274 -273
 0
 -145 274 273
 0
 145 -274 273
 0
 -147 -275 -274
 0
 147 275 -274
 0
 -147 275 274
 0
 147 -275 274
 0
 -158 -275 138
 0
 158 -275 -138
 0
 -158 275 -138
 0
 158 275 138
 0
 -151 -276 -98
 0
 151 276 -98
 0
 -151 276 98
 0
 151 -276 98
 0
 -126 -277 -276
 0
 126 277 -276
 0
 -126 277 276
 0
 126 -277 276
 0
 -128 -278 -277
 0
 128 278 -277
 0
 -128 278 277
 0
 128 -278 277
 0
 -132 -279 -278
 0
 132 279 -278
 0
 -132 279 278
 0
 132 -279 278
 0
 -143 -280 -279
 0
 143 280 -279
 0
 -143 280 279
 0
 143 -280 279
 0
 -147 -281 -280
 0
 147 281 -280
 0
 -147 281 280
 0
 147 -281 280
 0
 -134 -282 -281
 0
 134 282 -281
 0
 -134 282 281
 0
 134 -282 281
 0
 -138 -283 -282
 0
 138 283 -282
 0
 -138 283 282
 0
 138 -283 282
 0
 -165 -284 -283
 0
 165 284 -283
 0
 -165 284 283
 0
 165 -284 283
 0
 -149 -284 -137
 0
 149 -284 137
 0
 -149 284 137
 0
 149 284 -137
 0
 -145 -285 -102
 0
 145 285 -102
 0
 -145 285 102
 0
 145 -285 102
 0
 -157 -286 -285
 0
 157 286 -285
 0
 -157 286 285
 0
 157 -286 285
 0
 -158 -287 -286
 0
 158 287 -286
 0
 -158 287 286
 0
 158 -287 286
 0
 -136 -288 -287
 0
 136 288 -287
 0
 -136 288 287
 0
 136 -288 287
 0
 -149 -288 137
 0
 149 -288 -137
 0
 -149 288 -137
 0
 149 288 137
 0
 -151 -289 -106
 0
 151 289 -106
 0
 -151 289 106
 0
 151 -289 106
 0
 -126 -290 -289
 0
 126 290 -289
 0
 -126 290 289
 0
 126 -290 289
 0
 -128 -291 -290
 0
 128 291 -290
 0
 -128 291 290
 0
 128 -291 290
 0
 -145 -291 147
 0
 145 -291 -147
 0
 -145 291 -147
 0
 145 291 147
 0
 -151 -292 -110
 0
 151 292 -110
 0
 -151 292 110
 0
 151 -292 110
 0
 -126 -293 -292
 0
 126 293 -292
 0
 -126 293 292
 0
 126 -293 292
 0
 -128 -294 -293
 0
 128 294 -293
 0
 -128 294 293
 0
 128 -294 293
 0
 -130 -295 -294
 0
 130 295 -294
 0
 -130 295 294
 0
 130 -295 294
 0
 -143 -296 -295
 0
 143 296 -295
 0
 -143 296 295
 0
 143 -296 295
 0
 -158 -297 -296
 0
 158 297 -296
 0
 -158 297 296
 0
 158 -297 296
 0
 -134 -298 -297
 0
 134 298 -297
 0
 -134 298 297
 0
 134 -298 297
 0
 -138 -165 -298
 0
 138 165 -298
 0
 -138 165 298
 0
 138 -165 298
 0
 -126 -299 -114
 0
 126 299 -114
 0
 -126 299 114
 0
 126 -299 114
 0
 -128 -300 -299
 0
 128 300 -299
 0
 -128 300 299
 0
 128 -300 299
 0
 -143 -301 -300
 0
 143 301 -300
 0
 -143 301 300
 0
 143 -301 300
 0
 -157 -302 -301
 0
 157 302 -301
 0
 -157 302 301
 0
 157 -302 301
 0
 -147 -302 149
 0
 147 -302 -149
 0
 -147 302 -149
 0
 147 302 149
 0
 -126 -303 -118
 0
 126 303 -118
 0
 -126 303 118
 0
 126 -303 118
 0
 -128 -304 -303
 0
 128 304 -303
 0
 -128 304 303
 0
 128 -304 303
 0
 -145 -305 -304
 0
 145 305 -304
 0
 -145 305 304
 0
 145 -305 304
 0
 -134 -306 -305
 0
 134 306 -305
 0
 -134 306 305
 0
 134 -306 305
 0
 -165 -307 -306
 0
 165 307 -306
 0
 -165 307 306
 0
 165 -307 306
 0
 -149 -307 -137
 0
 149 -307 137
 0
 -149 307 137
 0
 149 307 -137
 0
 -151 -308 -122
 0
 151 308 -122
 0
 -151 308 122
 0
 151 -308 122
 0
 -143 -309 -308
 0
 143 309 -308
 0
 -143 309 308
 0
 143 -309 308
 0
 -158 -134 -309
 0
 158 134 -309
 0
 -158 134 309
 0
 158 -134 309
 0
 -128 -310 -124
 0
 128 310 -124
 0
 -128 310 124
 0
 128 -310 124
 0
 -145 -311 -310
 0
 145 311 -310
 0
 -145 311 310
 0
 145 -311 310
 0
 -158 -136 -311
 0
 158 136 -311
 0
 -158 136 311
 0
 158 -136 311
 0
 -151 -312 -123
 0
 151 312 -123
 0
 -151 312 123
 0
 151 -312 123
 0
 -130 -313 -312
 0
 130 313 -312
 0
 -130 313 312
 0
 130 -313 312
 0
 -132 -314 -313
 0
 132 314 -313
 0
 -132 314 313
 0
 132 -314 313
 0
 -143 -315 -314
 0
 143 315 -314
 0
 -143 315 314
 0
 143 -315 314
 0
 -145 -316 -315
 0
 145 316 -315
 0
 -145 316 315
 0
 145 -316 315
 0
 -134 -317 -316
 0
 134 317 -316
 0
 -134 317 316
 0
 134 -317 316
 0
 -138 -317 165
 0
 138 -317 -165
 0
 -138 317 -165
 0
 138 317 165
 0

